benchmarks_CP/INST_64x64/50/inst64x64_50_84.dzn
S=8;
start=[|
-1,	59,	-1,	-1,	-1,	64,	25,	-1,	-1,	-1,	58,	-1,	-1,	-1,	-1,	-1,	23,	-1,	-1,	-1,	19,	-1,	-1,	28,	-1,	-1,	-1,	5,	-1,	-1,	-1,	15,	61,	-1,	31,	14,	32,	-1,	-1,	22,	44,	-1,	-1,	24,	-1,	2,	45,	-1,	-1,	-1,	10,	-1,	55,	39,	-1,	-1,	51,	8,	-1,	-1,	37,	-1,	52,	21|
-1,	27,	-1,	-1,	-1,	58,	35,	29,	-1,	23,	9,	-1,	39,	8,	-1,	-1,	12,	37,	44,	-1,	57,	62,	21,	32,	-1,	63,	6,	-1,	-1,	-1,	31,	2,	-1,	-1,	-1,	18,	-1,	-1,	-1,	43,	-1,	52,	-1,	64,	61,	48,	-1,	26,	-1,	-1,	54,	1,	-1,	13,	38,	-1,	56,	-1,	-1,	16,	49,	-1,	47,	-1|
50,	-1,	12,	63,	54,	40,	11,	-1,	-1,	38,	-1,	14,	29,	7,	49,	-1,	-1,	24,	-1,	-1,	-1,	-1,	20,	45,	-1,	55,	-1,	-1,	36,	35,	57,	-1,	53,	2,	33,	3,	-1,	-1,	-1,	56,	-1,	-1,	6,	28,	-1,	16,	60,	51,	30,	-1,	32,	52,	25,	37,	-1,	26,	27,	19,	61,	-1,	-1,	43,	46,	48|
48,	38,	-1,	-1,	-1,	23,	-1,	24,	44,	42,	-1,	-1,	34,	43,	52,	46,	-1,	61,	31,	30,	10,	16,	-1,	11,	51,	-1,	26,	8,	-1,	28,	41,	39,	-1,	-1,	4,	50,	64,	27,	59,	-1,	-1,	-1,	-1,	47,	7,	14,	37,	-1,	-1,	-1,	-1,	-1,	56,	40,	-1,	-1,	-1,	-1,	-1,	55,	-1,	-1,	25,	-1|
-1,	39,	-1,	-1,	-1,	-1,	-1,	60,	-1,	36,	-1,	-1,	27,	45,	-1,	-1,	-1,	-1,	-1,	50,	-1,	-1,	53,	-1,	-1,	-1,	-1,	-1,	37,	-1,	-1,	24,	1,	35,	-1,	-1,	38,	13,	-1,	-1,	-1,	-1,	9,	57,	-1,	55,	3,	59,	43,	-1,	-1,	16,	-1,	31,	49,	63,	-1,	-1,	-1,	41,	28,	-1,	-1,	44|
36,	-1,	-1,	30,	37,	20,	56,	41,	-1,	-1,	61,	-1,	12,	-1,	-1,	51,	7,	-1,	-1,	13,	4,	-1,	-1,	33,	46,	-1,	-1,	50,	49,	-1,	48,	-1,	-1,	52,	16,	29,	-1,	-1,	-1,	63,	-1,	-1,	38,	31,	39,	-1,	-1,	-1,	47,	28,	45,	-1,	-1,	42,	64,	-1,	6,	24,	-1,	2,	35,	-1,	-1,	-1|
-1,	13,	44,	-1,	-1,	-1,	-1,	47,	-1,	2,	37,	21,	-1,	64,	19,	17,	-1,	43,	-1,	-1,	46,	52,	-1,	-1,	-1,	53,	59,	-1,	23,	-1,	54,	61,	-1,	-1,	-1,	40,	-1,	55,	34,	36,	29,	-1,	-1,	56,	-1,	-1,	35,	42,	-1,	27,	-1,	4,	22,	50,	14,	-1,	-1,	18,	-1,	-1,	45,	58,	-1,	26|
52,	-1,	14,	34,	-1,	-1,	-1,	7,	-1,	-1,	-1,	-1,	62,	26,	24,	53,	-1,	9,	-1,	-1,	-1,	51,	-1,	-1,	-1,	44,	-1,	29,	38,	-1,	40,	-1,	57,	-1,	6,	37,	39,	-1,	47,	45,	-1,	-1,	-1,	23,	19,	41,	54,	-1,	-1,	-1,	-1,	-1,	-1,	2,	-1,	-1,	-1,	15,	31,	-1,	30,	-1,	-1,	11|
-1,	-1,	-1,	44,	22,	29,	49,	-1,	51,	-1,	-1,	-1,	-1,	28,	34,	-1,	2,	40,	48,	-1,	39,	-1,	-1,	-1,	-1,	6,	-1,	-1,	35,	60,	-1,	11,	43,	-1,	-1,	-1,	18,	-1,	-1,	61,	-1,	-1,	-1,	10,	38,	-1,	58,	-1,	-1,	62,	-1,	-1,	-1,	-1,	-1,	42,	37,	56,	-1,	-1,	32,	13,	57,	20|
-1,	52,	9,	-1,	21,	18,	-1,	-1,	-1,	49,	-1,	8,	-1,	-1,	11,	-1,	-1,	-1,	6,	5,	-1,	-1,	-1,	26,	-1,	23,	61,	-1,	-1,	-1,	32,	-1,	45,	-1,	48,	19,	-1,	-1,	17,	-1,	-1,	-1,	35,	-1,	-1,	29,	-1,	-1,	44,	25,	53,	-1,	37,	-1,	-1,	47,	30,	1,	-1,	62,	-1,	-1,	64,	27|
-1,	23,	43,	-1,	-1,	33,	41,	61,	-1,	32,	1,	63,	-1,	-1,	-1,	3,	-1,	49,	56,	11,	28,	17,	62,	46,	12,	-1,	39,	57,	13,	58,	2,	-1,	31,	-1,	-1,	20,	-1,	-1,	-1,	50,	30,	-1,	51,	-1,	59,	-1,	-1,	-1,	64,	36,	-1,	48,	-1,	-1,	-1,	34,	-1,	-1,	45,	-1,	-1,	40,	-1,	-1|
30,	-1,	-1,	25,	-1,	2,	13,	37,	45,	-1,	-1,	-1,	-1,	12,	-1,	-1,	-1,	-1,	4,	-1,	18,	27,	-1,	-1,	-1,	-1,	44,	-1,	-1,	22,	-1,	-1,	-1,	58,	32,	-1,	-1,	41,	-1,	-1,	-1,	31,	11,	-1,	-1,	6,	-1,	57,	-1,	-1,	-1,	-1,	21,	-1,	-1,	39,	-1,	-1,	49,	-1,	-1,	-1,	3,	5|
-1,	54,	62,	-1,	-1,	-1,	-1,	-1,	57,	-1,	-1,	7,	41,	-1,	-1,	58,	-1,	-1,	-1,	-1,	30,	20,	-1,	-1,	28,	4,	-1,	15,	-1,	-1,	42,	21,	64,	39,	13,	5,	-1,	-1,	10,	44,	33,	-1,	24,	27,	-1,	63,	-1,	-1,	56,	-1,	-1,	-1,	-1,	-1,	61,	-1,	-1,	-1,	-1,	18,	-1,	55,	-1,	-1|
-1,	42,	46,	24,	38,	14,	-1,	8,	5,	-1,	-1,	54,	-1,	-1,	-1,	15,	32,	-1,	-1,	22,	-1,	-1,	-1,	-1,	20,	10,	18,	26,	-1,	-1,	-1,	-1,	4,	49,	-1,	2,	33,	-1,	-1,	-1,	28,	61,	-1,	-1,	62,	7,	-1,	-1,	-1,	-1,	-1,	-1,	-1,	1,	55,	-1,	-1,	44,	35,	39,	-1,	-1,	11,	-1|
-1,	-1,	11,	39,	57,	-1,	7,	26,	-1,	-1,	29,	52,	48,	-1,	-1,	55,	-1,	1,	60,	-1,	-1,	-1,	61,	10,	45,	-1,	-1,	-1,	-1,	-1,	-1,	-1,	30,	-1,	12,	-1,	16,	-1,	53,	8,	-1,	36,	-1,	9,	-1,	13,	-1,	-1,	-1,	49,	6,	-1,	54,	43,	46,	-1,	58,	47,	-1,	-1,	15,	41,	-1,	50|
28,	40,	-1,	-1,	-1,	-1,	20,	-1,	-1,	-1,	4,	-1,	19,	-1,	-1,	-1,	37,	-1,	-1,	-1,	-1,	-1,	44,	-1,	-1,	43,	47,	-1,	7,	-1,	-1,	30,	-1,	1,	9,	59,	-1,	38,	51,	-1,	3,	49,	45,	-1,	8,	39,	-1,	56,	41,	57,	13,	-1,	-1,	18,	50,	-1,	61,	33,	12,	-1,	24,	-1,	-1,	-1|
-1,	29,	61,	56,	-1,	44,	17,	-1,	-1,	51,	50,	9,	5,	-1,	63,	26,	28,	-1,	49,	-1,	-1,	-1,	19,	55,	52,	-1,	-1,	-1,	10,	48,	-1,	-1,	-1,	-1,	-1,	35,	-1,	30,	13,	-1,	-1,	-1,	-1,	60,	27,	-1,	4,	21,	-1,	42,	-1,	-1,	-1,	-1,	7,	-1,	-1,	40,	11,	-1,	54,	-1,	-1,	-1|
46,	6,	31,	50,	62,	15,	55,	16,	24,	-1,	-1,	17,	10,	-1,	38,	30,	43,	2,	-1,	48,	20,	-1,	14,	-1,	8,	-1,	-1,	-1,	-1,	-1,	61,	-1,	-1,	-1,	29,	-1,	47,	51,	-1,	37,	59,	58,	23,	7,	-1,	-1,	18,	-1,	27,	-1,	1,	-1,	-1,	56,	-1,	44,	-1,	5,	60,	49,	-1,	-1,	39,	28|
-1,	-1,	8,	-1,	11,	12,	-1,	-1,	-1,	20,	15,	-1,	-1,	53,	-1,	-1,	-1,	-1,	-1,	-1,	58,	42,	26,	-1,	24,	2,	22,	19,	63,	43,	5,	32,	-1,	31,	34,	-1,	-1,	-1,	-1,	55,	56,	-1,	3,	35,	50,	40,	33,	-1,	-1,	-1,	-1,	-1,	-1,	-1,	-1,	41,	36,	29,	-1,	38,	47,	48,	-1,	-1|
-1,	20,	30,	-1,	-1,	-1,	-1,	52,	-1,	61,	-1,	55,	37,	48,	-1,	-1,	-1,	-1,	13,	-1,	-1,	11,	-1,	-1,	40,	-1,	-1,	45,	-1,	-1,	29,	58,	-1,	-1,	44,	-1,	49,	59,	8,	38,	19,	-1,	-1,	36,	-1,	-1,	-1,	-1,	-1,	35,	-1,	5,	-1,	24,	9,	-1,	33,	3,	-1,	-1,	-1,	56,	-1,	-1|
-1,	-1,	25,	3,	10,	38,	58,	48,	2,	8,	-1,	-1,	-1,	-1,	-1,	22,	18,	-1,	12,	6,	-1,	-1,	-1,	61,	57,	-1,	4,	-1,	-1,	-1,	59,	-1,	-1,	-1,	-1,	-1,	-1,	15,	9,	54,	-1,	-1,	-1,	29,	16,	5,	26,	30,	-1,	55,	-1,	45,	20,	-1,	-1,	19,	46,	21,	44,	-1,	13,	1,	37,	-1|
-1,	36,	35,	-1,	27,	42,	-1,	2,	54,	-1,	18,	-1,	49,	-1,	-1,	-1,	40,	57,	29,	10,	-1,	-1,	50,	-1,	-1,	31,	-1,	-1,	39,	-1,	3,	26,	-1,	-1,	-1,	7,	-1,	-1,	19,	64,	-1,	41,	-1,	-1,	-1,	8,	48,	-1,	51,	-1,	15,	-1,	-1,	-1,	6,	60,	16,	62,	55,	61,	-1,	-1,	-1,	45|
-1,	28,	-1,	-1,	-1,	51,	26,	-1,	60,	62,	52,	29,	21,	36,	-1,	39,	3,	-1,	33,	-1,	-1,	-1,	30,	-1,	47,	-1,	17,	49,	-1,	44,	50,	41,	-1,	10,	-1,	63,	45,	-1,	-1,	-1,	-1,	11,	55,	54,	-1,	-1,	-1,	61,	-1,	23,	-1,	-1,	-1,	-1,	34,	46,	42,	35,	27,	-1,	-1,	-1,	-1,	9|
-1,	60,	-1,	53,	-1,	-1,	-1,	-1,	46,	45,	14,	-1,	-1,	35,	47,	33,	17,	62,	-1,	-1,	15,	8,	5,	21,	18,	-1,	36,	-1,	-1,	13,	23,	-1,	-1,	-1,	1,	11,	-1,	-1,	40,	-1,	63,	51,	-1,	34,	-1,	-1,	-1,	64,	16,	50,	-1,	25,	57,	-1,	-1,	-1,	43,	-1,	58,	-1,	-1,	24,	-1,	6|
-1,	2,	7,	-1,	30,	-1,	21,	-1,	49,	-1,	-1,	51,	-1,	-1,	5,	8,	-1,	-1,	40,	-1,	-1,	59,	-1,	52,	58,	25,	35,	-1,	61,	29,	-1,	6,	-1,	-1,	28,	-1,	42,	-1,	60,	-1,	16,	10,	26,	14,	-1,	56,	17,	33,	-1,	4,	-1,	-1,	43,	34,	63,	64,	-1,	-1,	50,	-1,	11,	-1,	27,	37|
39,	37,	17,	42,	-1,	60,	3,	40,	-1,	-1,	-1,	64,	-1,	55,	48,	-1,	10,	-1,	-1,	26,	-1,	25,	-1,	-1,	-1,	13,	23,	-1,	24,	-1,	53,	49,	-1,	-1,	-1,	-1,	-1,	6,	-1,	-1,	7,	-1,	-1,	-1,	34,	36,	-1,	44,	-1,	45,	-1,	-1,	-1,	-1,	-1,	15,	-1,	51,	-1,	9,	57,	-1,	56,	35|
35,	11,	56,	47,	-1,	22,	29,	-1,	31,	46,	39,	-1,	-1,	-1,	-1,	-1,	-1,	-1,	16,	-1,	-1,	-1,	-1,	-1,	43,	-1,	50,	28,	-1,	19,	38,	-1,	12,	-1,	27,	-1,	21,	8,	32,	26,	-1,	54,	-1,	59,	3,	60,	-1,	-1,	-1,	-1,	-1,	-1,	49,	6,	53,	-1,	-1,	-1,	-1,	58,	36,	15,	-1,	-1|
-1,	43,	-1,	61,	-1,	13,	-1,	28,	58,	4,	-1,	-1,	-1,	-1,	9,	36,	-1,	-1,	-1,	57,	41,	37,	-1,	1,	-1,	7,	3,	12,	-1,	5,	-1,	63,	-1,	-1,	18,	56,	50,	54,	52,	-1,	-1,	30,	-1,	-1,	29,	45,	11,	23,	-1,	-1,	-1,	-1,	-1,	-1,	-1,	-1,	59,	-1,	-1,	-1,	64,	-1,	22,	25|
-1,	-1,	-1,	-1,	20,	9,	-1,	53,	3,	34,	-1,	45,	-1,	-1,	44,	-1,	-1,	-1,	63,	-1,	50,	-1,	-1,	4,	-1,	-1,	40,	56,	-1,	-1,	-1,	-1,	47,	51,	-1,	-1,	-1,	25,	-1,	-1,	57,	-1,	-1,	-1,	42,	-1,	12,	-1,	-1,	48,	-1,	-1,	-1,	-1,	-1,	-1,	-1,	61,	26,	-1,	19,	5,	-1,	-1|
-1,	-1,	51,	10,	12,	4,	44,	-1,	17,	60,	-1,	-1,	-1,	-1,	37,	63,	42,	-1,	36,	43,	-1,	-1,	-1,	-1,	48,	-1,	15,	30,	-1,	39,	-1,	47,	-1,	-1,	-1,	-1,	-1,	61,	-1,	3,	9,	6,	18,	38,	41,	31,	-1,	-1,	-1,	54,	25,	27,	8,	-1,	32,	-1,	-1,	52,	53,	-1,	29,	23,	-1,	7|
-1,	8,	-1,	-1,	-1,	-1,	-1,	54,	29,	-1,	26,	2,	22,	-1,	57,	21,	-1,	64,	15,	-1,	-1,	39,	-1,	-1,	14,	-1,	10,	-1,	-1,	32,	20,	-1,	-1,	23,	-1,	16,	-1,	34,	35,	-1,	51,	43,	-1,	-1,	-1,	-1,	1,	55,	-1,	38,	-1,	-1,	-1,	-1,	3,	-1,	-1,	60,	-1,	-1,	-1,	-1,	-1,	4|
23,	41,	26,	46,	25,	-1,	-1,	50,	1,	-1,	-1,	-1,	15,	19,	28,	-1,	-1,	-1,	3,	53,	34,	22,	56,	38,	-1,	51,	57,	52,	-1,	-1,	-1,	-1,	-1,	-1,	45,	-1,	-1,	37,	-1,	30,	-1,	13,	62,	-1,	-1,	-1,	-1,	-1,	-1,	24,	40,	-1,	-1,	-1,	-1,	16,	-1,	14,	-1,	42,	-1,	-1,	54,	-1|
-1,	-1,	54,	-1,	1,	50,	19,	33,	-1,	30,	-1,	-1,	-1,	24,	-1,	-1,	-1,	10,	-1,	25,	-1,	43,	55,	-1,	7,	45,	42,	35,	-1,	-1,	-1,	-1,	37,	26,	-1,	38,	-1,	17,	57,	20,	14,	-1,	-1,	63,	12,	28,	52,	-1,	48,	-1,	8,	21,	31,	15,	59,	11,	-1,	41,	-1,	-1,	-1,	-1,	-1,	-1|
63,	12,	-1,	49,	60,	-1,	-1,	17,	-1,	-1,	62,	43,	-1,	9,	-1,	-1,	45,	-1,	7,	52,	-1,	18,	-1,	22,	-1,	-1,	-1,	13,	-1,	2,	36,	-1,	-1,	6,	-1,	-1,	48,	-1,	24,	-1,	-1,	-1,	-1,	-1,	-1,	3,	-1,	-1,	-1,	14,	47,	20,	23,	64,	-1,	-1,	-1,	-1,	-1,	51,	27,	50,	-1,	-1|
-1,	26,	40,	43,	15,	-1,	-1,	-1,	50,	52,	19,	37,	-1,	-1,	64,	-1,	33,	-1,	32,	62,	53,	5,	39,	2,	6,	57,	-1,	-1,	-1,	-1,	-1,	-1,	-1,	-1,	21,	13,	34,	35,	45,	41,	-1,	-1,	30,	25,	47,	-1,	31,	-1,	-1,	61,	-1,	29,	58,	-1,	-1,	-1,	10,	-1,	-1,	24,	38,	7,	-1,	46|
37,	3,	52,	21,	-1,	46,	-1,	-1,	-1,	14,	40,	-1,	33,	-1,	-1,	35,	-1,	26,	-1,	28,	13,	38,	-1,	-1,	-1,	-1,	-1,	10,	-1,	30,	-1,	-1,	-1,	63,	36,	55,	9,	2,	5,	58,	54,	64,	32,	51,	56,	49,	-1,	50,	-1,	7,	-1,	-1,	-1,	-1,	17,	45,	-1,	57,	-1,	60,	-1,	-1,	15,	-1|
18,	51,	45,	32,	-1,	34,	2,	25,	-1,	16,	3,	41,	26,	-1,	39,	-1,	9,	-1,	46,	21,	63,	-1,	42,	20,	-1,	60,	-1,	40,	-1,	31,	15,	-1,	19,	56,	-1,	64,	-1,	50,	54,	23,	-1,	-1,	-1,	5,	53,	-1,	-1,	22,	-1,	-1,	-1,	49,	24,	30,	1,	-1,	-1,	28,	13,	-1,	-1,	-1,	-1,	-1|
-1,	14,	-1,	22,	-1,	-1,	24,	6,	47,	-1,	48,	49,	-1,	21,	23,	-1,	1,	56,	50,	-1,	8,	41,	-1,	-1,	-1,	28,	58,	9,	27,	-1,	-1,	3,	25,	-1,	-1,	44,	12,	-1,	-1,	-1,	-1,	55,	13,	42,	2,	-1,	-1,	4,	-1,	-1,	-1,	32,	-1,	-1,	26,	54,	-1,	-1,	-1,	63,	20,	-1,	-1,	33|
56,	9,	64,	-1,	23,	-1,	38,	42,	28,	55,	34,	-1,	7,	-1,	51,	-1,	-1,	-1,	-1,	-1,	40,	24,	60,	12,	-1,	21,	-1,	32,	-1,	59,	-1,	-1,	-1,	-1,	-1,	-1,	3,	43,	14,	-1,	45,	37,	29,	-1,	-1,	-1,	46,	-1,	-1,	63,	-1,	13,	41,	-1,	36,	50,	31,	53,	-1,	-1,	44,	22,	61,	-1|
-1,	-1,	13,	-1,	-1,	62,	-1,	-1,	-1,	12,	63,	42,	45,	15,	32,	11,	-1,	29,	58,	14,	-1,	-1,	36,	34,	-1,	48,	49,	24,	51,	-1,	-1,	-1,	-1,	46,	-1,	-1,	-1,	7,	39,	47,	-1,	19,	41,	33,	21,	-1,	-1,	6,	25,	40,	-1,	9,	2,	44,	-1,	-1,	55,	-1,	-1,	-1,	23,	26,	-1,	1|
-1,	-1,	4,	-1,	-1,	-1,	46,	-1,	-1,	18,	-1,	15,	58,	32,	-1,	-1,	-1,	45,	-1,	-1,	31,	1,	52,	-1,	-1,	-1,	-1,	-1,	-1,	-1,	37,	5,	22,	-1,	39,	43,	10,	14,	-1,	24,	6,	-1,	-1,	61,	-1,	-1,	-1,	-1,	23,	44,	-1,	11,	64,	20,	60,	2,	41,	-1,	28,	-1,	59,	-1,	-1,	29|
24,	-1,	-1,	60,	51,	7,	28,	-1,	52,	26,	-1,	13,	-1,	54,	-1,	-1,	61,	19,	-1,	33,	62,	21,	49,	29,	-1,	-1,	27,	-1,	32,	34,	-1,	-1,	-1,	57,	23,	45,	53,	-1,	2,	31,	-1,	-1,	59,	39,	55,	-1,	50,	11,	-1,	-1,	-1,	-1,	42,	-1,	-1,	-1,	47,	-1,	-1,	5,	14,	-1,	-1,	16|
-1,	56,	-1,	-1,	17,	-1,	10,	34,	-1,	-1,	-1,	-1,	31,	60,	-1,	38,	46,	39,	-1,	-1,	-1,	26,	-1,	-1,	49,	-1,	-1,	21,	57,	-1,	55,	-1,	-1,	37,	5,	58,	-1,	18,	36,	-1,	-1,	15,	48,	-1,	-1,	-1,	-1,	3,	-1,	13,	-1,	-1,	45,	-1,	-1,	28,	44,	23,	42,	-1,	-1,	64,	-1,	-1|
16,	-1,	1,	-1,	35,	-1,	42,	-1,	-1,	39,	5,	46,	-1,	17,	40,	49,	-1,	59,	55,	-1,	11,	-1,	27,	-1,	-1,	58,	-1,	-1,	-1,	45,	-1,	-1,	44,	8,	47,	28,	52,	-1,	-1,	-1,	36,	-1,	60,	-1,	-1,	-1,	9,	-1,	61,	32,	-1,	53,	-1,	-1,	54,	7,	-1,	2,	15,	56,	-1,	51,	-1,	10|
-1,	5,	23,	48,	41,	49,	27,	-1,	-1,	-1,	45,	-1,	-1,	62,	8,	-1,	-1,	58,	-1,	-1,	-1,	-1,	7,	54,	53,	-1,	-1,	-1,	-1,	-1,	-1,	50,	-1,	-1,	55,	-1,	30,	40,	-1,	-1,	43,	-1,	-1,	-1,	37,	-1,	42,	46,	29,	-1,	-1,	-1,	36,	3,	15,	-1,	57,	32,	6,	31,	-1,	19,	-1,	-1|
44,	-1,	-1,	-1,	-1,	-1,	-1,	15,	21,	-1,	-1,	4,	55,	-1,	-1,	-1,	36,	23,	41,	-1,	-1,	-1,	17,	-1,	-1,	26,	-1,	-1,	48,	-1,	14,	-1,	-1,	-1,	60,	6,	61,	-1,	-1,	27,	-1,	-1,	28,	-1,	-1,	54,	32,	-1,	35,	18,	59,	24,	-1,	49,	10,	-1,	40,	11,	-1,	-1,	58,	38,	50,	52|
-1,	-1,	-1,	-1,	-1,	-1,	52,	-1,	-1,	63,	-1,	27,	42,	23,	1,	-1,	15,	-1,	10,	-1,	-1,	28,	22,	13,	-1,	-1,	-1,	61,	6,	-1,	43,	59,	-1,	25,	41,	54,	11,	-1,	-1,	48,	40,	-1,	21,	-1,	51,	-1,	14,	31,	9,	46,	-1,	37,	26,	47,	-1,	-1,	-1,	-1,	7,	-1,	18,	-1,	34,	55|
-1,	-1,	33,	26,	-1,	21,	-1,	32,	36,	-1,	-1,	11,	-1,	41,	-1,	6,	57,	-1,	5,	2,	-1,	-1,	4,	-1,	-1,	-1,	-1,	54,	-1,	-1,	28,	-1,	49,	-1,	-1,	-1,	-1,	-1,	-1,	9,	-1,	27,	-1,	53,	-1,	24,	10,	19,	14,	-1,	-1,	38,	12,	55,	39,	62,	3,	45,	1,	8,	-1,	37,	48,	60|
41,	57,	-1,	-1,	-1,	26,	-1,	11,	-1,	29,	-1,	-1,	9,	4,	55,	47,	58,	5,	-1,	1,	-1,	35,	-1,	36,	19,	-1,	32,	44,	-1,	56,	-1,	31,	-1,	45,	-1,	-1,	-1,	52,	61,	-1,	-1,	8,	-1,	-1,	28,	37,	51,	63,	34,	-1,	-1,	17,	10,	14,	40,	25,	23,	43,	24,	-1,	-1,	-1,	30,	53|
9,	-1,	-1,	16,	56,	-1,	-1,	14,	-1,	-1,	11,	-1,	63,	-1,	26,	2,	8,	-1,	51,	-1,	-1,	-1,	-1,	57,	-1,	30,	-1,	23,	28,	-1,	12,	-1,	-1,	-1,	15,	22,	-1,	-1,	48,	-1,	55,	-1,	-1,	-1,	60,	58,	29,	53,	46,	-1,	-1,	-1,	62,	21,	47,	1,	-1,	-1,	64,	7,	52,	32,	-1,	17|
-1,	-1,	-1,	40,	-1,	53,	60,	-1,	-1,	48,	23,	-1,	-1,	-1,	21,	-1,	56,	-1,	28,	-1,	-1,	7,	12,	63,	-1,	37,	-1,	38,	-1,	-1,	52,	-1,	10,	-1,	64,	-1,	-1,	9,	-1,	-1,	-1,	-1,	14,	-1,	33,	59,	-1,	39,	2,	-1,	-1,	50,	-1,	54,	45,	-1,	35,	31,	-1,	-1,	26,	27,	-1,	36|
33,	-1,	-1,	-1,	-1,	52,	37,	51,	-1,	7,	-1,	-1,	-1,	49,	-1,	-1,	-1,	32,	-1,	-1,	60,	-1,	-1,	-1,	34,	-1,	63,	-1,	50,	-1,	-1,	-1,	-1,	-1,	35,	30,	-1,	21,	11,	42,	27,	-1,	-1,	-1,	-1,	-1,	57,	-1,	26,	5,	38,	-1,	-1,	-1,	12,	3,	-1,	-1,	-1,	47,	61,	-1,	-1,	13|
29,	-1,	21,	5,	-1,	10,	-1,	59,	27,	1,	28,	-1,	13,	-1,	45,	64,	26,	6,	-1,	-1,	49,	-1,	16,	43,	35,	46,	20,	-1,	15,	33,	7,	40,	62,	38,	8,	-1,	19,	57,	-1,	-1,	17,	3,	61,	30,	54,	-1,	-1,	-1,	60,	37,	24,	18,	-1,	9,	-1,	4,	22,	-1,	63,	11,	-1,	-1,	42,	14|
-1,	46,	-1,	-1,	-1,	-1,	47,	-1,	-1,	-1,	-1,	6,	57,	33,	-1,	32,	-1,	-1,	62,	-1,	24,	-1,	-1,	-1,	61,	-1,	-1,	2,	-1,	-1,	11,	-1,	36,	-1,	17,	26,	-1,	-1,	28,	-1,	18,	35,	-1,	-1,	23,	15,	-1,	-1,	59,	-1,	42,	-1,	29,	58,	-1,	56,	-1,	-1,	-1,	-1,	1,	9,	41,	-1|
-1,	-1,	-1,	-1,	61,	-1,	45,	19,	-1,	22,	-1,	38,	16,	-1,	30,	52,	-1,	54,	-1,	-1,	-1,	14,	33,	53,	36,	18,	60,	-1,	3,	6,	-1,	-1,	-1,	-1,	63,	-1,	-1,	58,	-1,	-1,	-1,	-1,	1,	-1,	5,	-1,	-1,	24,	-1,	43,	-1,	57,	27,	-1,	8,	-1,	48,	12,	-1,	40,	62,	44,	20,	51|
27,	22,	-1,	-1,	-1,	24,	-1,	13,	19,	-1,	36,	39,	61,	-1,	14,	5,	52,	-1,	-1,	59,	9,	31,	45,	-1,	21,	49,	-1,	-1,	-1,	17,	-1,	-1,	-1,	47,	2,	-1,	-1,	-1,	56,	29,	-1,	32,	-1,	26,	-1,	11,	62,	38,	55,	64,	48,	-1,	-1,	63,	35,	-1,	34,	10,	54,	33,	-1,	-1,	18,	57|
-1,	-1,	-1,	-1,	45,	3,	53,	-1,	-1,	-1,	20,	59,	32,	-1,	-1,	62,	21,	35,	24,	-1,	54,	2,	-1,	-1,	-1,	22,	46,	-1,	40,	26,	-1,	-1,	-1,	-1,	50,	47,	-1,	23,	55,	-1,	-1,	39,	15,	-1,	57,	52,	8,	25,	-1,	31,	60,	-1,	-1,	-1,	58,	27,	28,	-1,	-1,	-1,	10,	11,	38,	-1|
-1,	-1,	-1,	-1,	-1,	25,	-1,	44,	30,	-1,	-1,	26,	2,	-1,	15,	40,	22,	28,	45,	63,	52,	60,	47,	31,	1,	-1,	41,	-1,	42,	54,	-1,	-1,	24,	-1,	-1,	-1,	8,	20,	-1,	18,	-1,	23,	-1,	11,	-1,	51,	56,	-1,	-1,	16,	-1,	64,	-1,	-1,	43,	-1,	5,	50,	-1,	32,	48,	-1,	7,	-1|
-1,	-1,	-1,	-1,	-1,	48,	-1,	-1,	11,	-1,	-1,	19,	4,	63,	50,	-1,	62,	14,	-1,	-1,	5,	-1,	64,	-1,	37,	-1,	-1,	-1,	-1,	-1,	-1,	-1,	-1,	28,	58,	-1,	-1,	-1,	-1,	-1,	31,	9,	54,	-1,	40,	20,	55,	-1,	22,	-1,	-1,	47,	-1,	41,	-1,	51,	-1,	42,	2,	-1,	-1,	-1,	23,	24|
-1,	7,	28,	37,	47,	11,	14,	22,	-1,	-1,	-1,	48,	35,	52,	-1,	34,	59,	27,	-1,	46,	-1,	23,	29,	-1,	-1,	3,	19,	36,	31,	55,	51,	57,	-1,	62,	38,	-1,	-1,	45,	-1,	-1,	-1,	-1,	64,	-1,	-1,	-1,	-1,	-1,	53,	15,	5,	-1,	-1,	17,	42,	20,	-1,	13,	-1,	-1,	39,	61,	43,	-1|
-1,	-1,	24,	41,	-1,	-1,	-1,	43,	22,	64,	8,	3,	46,	25,	-1,	-1,	-1,	-1,	20,	56,	37,	-1,	-1,	50,	23,	-1,	13,	4,	-1,	47,	9,	28,	63,	29,	-1,	-1,	-1,	-1,	-1,	-1,	48,	-1,	-1,	62,	-1,	-1,	-1,	-1,	32,	2,	-1,	35,	-1,	59,	-1,	-1,	-1,	58,	57,	27,	-1,	-1,	17,	-1|
26,	-1,	-1,	-1,	58,	17,	-1,	-1,	-1,	28,	38,	-1,	-1,	-1,	-1,	1,	53,	-1,	-1,	-1,	-1,	-1,	-1,	41,	56,	32,	2,	-1,	-1,	-1,	8,	45,	-1,	-1,	59,	21,	-1,	48,	22,	5,	61,	24,	44,	-1,	-1,	43,	27,	-1,	-1,	3,	63,	-1,	11,	25,	-1,	49,	-1,	20,	-1,	64,	34,	52,	6,	47|
-1,	-1,	57,	-1,	-1,	54,	62,	30,	-1,	-1,	13,	31,	14,	29,	36,	-1,	-1,	-1,	-1,	38,	-1,	-1,	-1,	58,	-1,	50,	-1,	43,	52,	64,	25,	-1,	-1,	-1,	61,	-1,	-1,	-1,	-1,	2,	60,	-1,	49,	-1,	63,	22,	28,	-1,	-1,	-1,	56,	-1,	-1,	46,	37,	-1,	-1,	-1,	16,	-1,	51,	-1,	44,	-1|
-1,	63,	-1,	6,	-1,	-1,	-1,	-1,	-1,	47,	7,	44,	-1,	61,	-1,	-1,	-1,	12,	11,	18,	25,	30,	-1,	-1,	60,	-1,	-1,	-1,	-1,	-1,	-1,	-1,	-1,	19,	-1,	52,	-1,	-1,	43,	14,	26,	-1,	-1,	45,	-1,	-1,	41,	10,	-1,	-1,	-1,	-1,	-1,	23,	-1,	8,	-1,	22,	-1,	46,	-1,	-1,	31,	15|];
