sudoku-ls/benchmarks_LEQ/INST_64x64/50/inst64x64_50_84.txt
8
1
42	-1	-1	-1	9	64	25	-1	-1	-1	-1	-1	-1	6	35	50	23	-1	-1	36	19	-1	-1	28	27	1	62	-1	-1	18	-1	-1	61	48	31	-1	32	49	12	-1	44	40	-1	-1	43	2	45	-1	11	-1	-1	7	55	39	33	29	51	-1	38	57	37	53	52	-1
-1	27	-1	-1	19	-1	-1	-1	40	23	-1	25	39	8	-1	-1	12	-1	-1	-1	-1	62	-1	32	-1	-1	-1	11	20	14	-1	-1	46	30	-1	18	-1	-1	42	-1	50	-1	34	-1	61	48	15	-1	24	-1	54	1	53	-1	-1	-1	-1	7	10	16	49	4	-1	-1
50	-1	12	-1	54	40	-1	1	-1	38	-1	14	-1	7	49	-1	-1	24	-1	47	22	-1	20	-1	13	55	9	42	-1	35	57	34	53	2	33	3	23	44	62	-1	21	18	-1	-1	-1	-1	-1	51	30	-1	32	52	25	37	-1	-1	-1	-1	-1	59	-1	43	-1	48
-1	38	22	2	49	-1	-1	-1	-1	-1	60	5	34	43	-1	46	-1	61	31	30	10	-1	1	11	-1	-1	26	8	45	28	-1	-1	-1	-1	-1	-1	64	-1	59	17	58	-1	-1	-1	-1	-1	-1	-1	62	6	-1	-1	56	40	-1	-1	-1	54	-1	-1	12	-1	25	32
-1	-1	10	8	-1	61	6	-1	4	-1	-1	-1	27	-1	18	-1	-1	-1	2	-1	56	-1	-1	-1	32	17	-1	58	37	-1	21	24	-1	35	25	15	-1	13	-1	19	-1	-1	-1	-1	-1	-1	3	59	-1	-1	-1	16	5	31	49	63	-1	64	23	41	28	34	14	44
36	21	-1	-1	-1	-1	-1	-1	55	-1	61	32	-1	-1	59	-1	7	-1	14	13	4	3	18	-1	46	19	-1	-1	49	-1	-1	-1	-1	52	-1	-1	-1	-1	-1	63	-1	62	38	31	-1	-1	5	27	47	-1	45	34	-1	-1	64	23	6	24	-1	2	-1	-1	-1	22
3	-1	44	-1	33	-1	15	47	-1	-1	37	-1	-1	64	19	17	-1	43	38	-1	46	52	-1	-1	10	53	-1	-1	23	7	-1	61	5	11	24	40	41	55	34	-1	29	12	-1	56	30	32	-1	42	57	-1	51	-1	22	-1	-1	9	20	-1	-1	-1	-1	58	-1	26
-1	32	14	34	43	28	18	-1	63	-1	16	1	62	26	24	-1	-1	9	-1	60	55	51	-1	25	-1	44	64	-1	38	-1	40	56	57	-1	6	37	39	10	47	45	4	22	8	-1	19	-1	-1	-1	-1	58	-1	-1	61	2	48	21	-1	15	31	-1	30	42	33	-1
1	-1	-1	44	-1	29	-1	27	51	-1	30	-1	-1	28	34	9	2	-1	-1	-1	39	53	-1	7	-1	6	55	-1	-1	60	-1	11	-1	-1	-1	25	-1	-1	-1	-1	41	50	19	10	-1	12	-1	14	-1	-1	-1	-1	33	-1	-1	42	-1	56	-1	-1	-1	-1	-1	20
-1	52	-1	-1	21	-1	-1	-1	39	49	-1	-1	50	20	-1	24	-1	13	-1	5	-1	-1	-1	-1	-1	-1	61	51	41	63	-1	14	45	-1	-1	-1	-1	28	17	-1	42	46	-1	-1	-1	29	-1	-1	-1	25	53	-1	37	-1	2	-1	-1	-1	36	62	-1	10	64	-1
53	-1	43	15	-1	-1	41	-1	-1	32	1	-1	18	-1	60	-1	-1	49	56	-1	-1	-1	-1	46	-1	38	-1	-1	-1	58	-1	29	-1	27	-1	-1	-1	-1	-1	-1	30	-1	51	55	-1	-1	16	-1	-1	36	9	-1	-1	-1	-1	-1	8	-1	-1	25	42	-1	21	19
-1	34	-1	-1	36	2	13	-1	-1	56	-1	-1	-1	12	61	-1	16	-1	-1	-1	-1	27	15	24	-1	-1	-1	-1	8	-1	-1	-1	-1	-1	32	62	-1	41	23	-1	-1	-1	-1	17	64	-1	-1	57	38	19	-1	10	-1	-1	-1	39	7	-1	49	14	-1	29	3	5
12	-1	-1	51	-1	6	50	-1	-1	40	17	7	-1	-1	-1	58	-1	-1	43	29	-1	-1	-1	-1	-1	4	37	15	19	49	42	21	-1	39	13	5	-1	22	-1	44	-1	-1	24	27	26	-1	25	60	-1	-1	-1	14	-1	45	-1	-1	38	48	-1	18	-1	55	53	-1
45	42	46	-1	-1	-1	-1	8	5	-1	53	-1	23	-1	-1	-1	-1	41	25	-1	51	19	58	-1	20	10	-1	26	-1	50	16	-1	4	49	3	-1	-1	-1	-1	57	28	-1	-1	-1	-1	7	34	48	-1	-1	-1	30	-1	1	-1	-1	9	-1	35	39	-1	-1	11	43
17	19	-1	-1	-1	56	7	26	-1	37	29	52	-1	-1	-1	-1	64	1	-1	-1	21	-1	61	10	45	-1	31	-1	-1	40	-1	-1	-1	-1	-1	-1	16	42	-1	-1	-1	36	-1	-1	4	-1	-1	-1	63	49	-1	-1	-1	43	-1	-1	58	-1	-1	22	15	-1	-1	50
28	40	-1	-1	5	-1	20	-1	-1	31	4	-1	19	27	62	14	37	52	-1	55	36	63	44	23	-1	43	47	-1	7	-1	34	30	6	1	9	59	-1	-1	51	11	-1	49	45	-1	8	39	-1	-1	41	57	-1	60	-1	18	-1	-1	-1	-1	12	17	24	-1	26	-1
14	-1	61	56	24	44	17	18	-1	-1	50	9	5	3	-1	-1	28	-1	-1	-1	-1	45	-1	55	-1	-1	25	-1	10	-1	6	53	-1	-1	-1	-1	20	30	13	-1	-1	38	37	-1	27	46	4	21	-1	-1	64	-1	-1	32	-1	59	15	-1	11	34	54	2	-1	41
46	6	31	-1	-1	-1	55	16	-1	19	32	17	-1	40	-1	-1	-1	-1	-1	-1	-1	34	14	-1	8	11	-1	-1	9	42	61	54	-1	-1	-1	36	47	51	33	37	59	58	23	7	13	-1	-1	-1	27	53	-1	26	3	-1	22	-1	4	5	-1	49	63	-1	39	28
-1	64	-1	-1	-1	-1	-1	-1	-1	-1	15	57	1	-1	-1	59	44	16	-1	37	-1	-1	-1	-1	24	2	-1	19	63	43	-1	-1	-1	-1	-1	46	6	-1	27	55	56	17	-1	-1	-1	40	33	-1	-1	10	-1	54	-1	52	62	-1	36	29	18	-1	-1	48	-1	-1
54	-1	30	-1	63	-1	-1	52	-1	-1	6	55	37	48	42	-1	-1	25	-1	-1	-1	-1	-1	27	40	14	-1	-1	-1	46	29	58	-1	-1	-1	17	-1	-1	8	38	-1	2	57	36	10	62	47	-1	-1	-1	18	5	-1	24	-1	-1	33	-1	-1	50	-1	56	12	64
-1	-1	-1	3	10	-1	-1	48	2	-1	-1	28	-1	31	27	22	18	53	12	6	-1	-1	-1	-1	-1	-1	4	-1	34	51	59	35	42	50	56	-1	-1	-1	9	54	-1	-1	43	-1	16	-1	-1	30	-1	-1	17	-1	-1	-1	-1	19	-1	-1	-1	52	13	1	37	23
-1	-1	35	33	-1	-1	-1	2	54	11	-1	-1	-1	-1	-1	13	-1	-1	29	10	-1	46	-1	47	30	31	-1	20	39	37	3	26	14	53	-1	7	-1	-1	-1	64	52	-1	-1	-1	-1	-1	48	-1	-1	-1	15	63	38	-1	6	-1	16	-1	55	-1	17	25	-1	-1
57	-1	-1	7	-1	-1	26	-1	60	-1	-1	-1	21	36	-1	-1	-1	-1	33	24	-1	-1	-1	-1	47	-1	17	-1	-1	-1	50	41	-1	-1	-1	63	45	16	18	25	22	-1	-1	54	6	-1	-1	61	-1	23	58	-1	13	12	34	46	42	35	27	-1	31	14	-1	-1
-1	-1	19	53	59	-1	-1	-1	-1	-1	14	12	-1	35	47	33	17	62	54	-1	15	-1	-1	21	-1	56	-1	-1	-1	13	-1	38	-1	61	-1	-1	2	-1	-1	-1	-1	-1	31	34	9	-1	-1	-1	16	-1	30	-1	57	-1	-1	-1	43	-1	58	20	-1	-1	10	-1
-1	2	-1	18	-1	-1	-1	-1	49	-1	54	51	-1	-1	5	-1	20	47	-1	-1	-1	59	24	-1	-1	25	-1	-1	-1	-1	-1	-1	9	-1	28	31	-1	-1	-1	13	16	-1	26	14	-1	56	-1	-1	-1	-1	-1	-1	-1	-1	-1	-1	-1	-1	50	-1	-1	-1	-1	-1
39	37	-1	-1	-1	-1	3	-1	-1	43	-1	-1	47	-1	-1	20	10	18	61	26	-1	25	54	5	-1	13	23	-1	-1	41	-1	49	-1	22	-1	-1	62	-1	38	-1	7	-1	-1	-1	-1	-1	2	-1	-1	-1	12	-1	28	29	30	-1	63	-1	8	-1	-1	-1	56	-1
35	-1	56	-1	-1	22	29	57	-1	46	39	-1	52	14	10	-1	30	7	-1	9	45	-1	13	51	43	-1	-1	-1	-1	-1	38	1	12	-1	-1	48	21	-1	32	-1	25	-1	40	-1	3	-1	-1	-1	37	-1	2	-1	-1	6	53	-1	24	-1	20	58	36	-1	-1	18
6	43	38	61	-1	13	33	28	58	4	-1	-1	40	-1	-1	-1	31	8	-1	57	41	37	-1	1	55	7	3	12	16	-1	17	63	-1	-1	-1	-1	-1	54	-1	53	-1	-1	-1	19	29	-1	-1	23	20	47	-1	-1	60	-1	-1	35	59	34	-1	-1	64	49	-1	-1
32	-1	-1	52	20	9	1	53	3	-1	59	-1	6	-1	44	-1	60	55	63	27	-1	29	35	4	-1	-1	-1	-1	-1	11	-1	-1	-1	51	10	24	-1	25	-1	-1	57	-1	46	8	42	-1	12	37	21	-1	-1	-1	-1	62	23	14	17	-1	-1	13	19	-1	-1	38
-1	-1	51	-1	-1	-1	-1	-1	17	-1	56	50	11	16	-1	-1	-1	-1	-1	43	2	49	-1	62	-1	-1	-1	-1	26	39	45	47	-1	-1	-1	57	-1	61	20	-1	9	-1	-1	38	41	31	22	35	13	-1	25	27	-1	19	-1	55	-1	52	53	28	29	-1	-1	7
62	-1	-1	36	-1	-1	-1	54	29	-1	26	-1	22	-1	57	21	19	-1	15	58	6	39	-1	-1	-1	42	-1	37	-1	-1	20	27	59	23	7	16	-1	-1	-1	46	-1	-1	53	-1	24	47	1	-1	-1	-1	44	56	-1	11	3	61	-1	-1	-1	-1	41	33	45	4
-1	-1	26	-1	-1	27	63	-1	1	-1	35	-1	15	-1	-1	-1	-1	11	3	-1	-1	-1	-1	38	-1	-1	-1	52	21	8	-1	-1	-1	17	45	4	55	-1	-1	30	49	13	62	20	58	-1	39	32	10	-1	-1	-1	-1	7	-1	16	2	14	43	-1	6	47	-1	31
-1	-1	-1	-1	1	50	19	-1	13	30	-1	36	-1	24	-1	27	49	10	-1	-1	-1	43	-1	3	7	45	-1	-1	-1	-1	47	16	-1	-1	-1	38	-1	-1	57	-1	14	-1	39	63	12	28	-1	9	-1	22	8	21	-1	15	-1	-1	-1	41	-1	6	-1	-1	2	-1
-1	12	41	49	-1	-1	30	-1	8	-1	62	43	54	-1	31	25	45	4	7	52	35	18	37	-1	38	5	-1	-1	46	-1	-1	-1	33	6	53	61	48	-1	24	-1	-1	-1	-1	-1	-1	3	44	-1	-1	-1	-1	-1	-1	64	28	57	-1	59	21	-1	-1	50	29	-1
-1	-1	40	-1	-1	59	-1	20	50	-1	-1	-1	17	18	64	-1	33	51	-1	62	53	-1	-1	-1	-1	57	54	22	-1	1	63	-1	28	-1	21	13	-1	35	-1	-1	23	-1	-1	-1	47	27	31	36	3	61	-1	-1	58	-1	-1	12	-1	49	-1	-1	-1	7	9	46
37	3	52	-1	-1	46	4	-1	61	14	-1	-1	-1	-1	-1	-1	-1	-1	59	28	-1	38	-1	48	-1	8	29	10	43	30	18	23	-1	-1	-1	-1	-1	-1	-1	-1	-1	64	-1	51	-1	-1	24	50	-1	-1	-1	-1	6	-1	17	-1	11	-1	-1	-1	25	-1	-1	-1
-1	-1	-1	-1	-1	34	-1	-1	-1	-1	3	41	-1	59	39	-1	9	-1	46	21	-1	-1	42	20	17	-1	14	40	-1	31	15	37	19	-1	11	64	-1	-1	54	23	62	57	7	5	-1	-1	-1	-1	4	33	-1	49	24	-1	-1	-1	-1	-1	13	43	8	35	36	58
-1	-1	-1	22	-1	-1	-1	-1	-1	5	48	-1	-1	21	23	60	-1	56	50	-1	8	-1	-1	64	-1	28	58	-1	-1	61	-1	3	25	-1	40	-1	12	29	31	-1	34	-1	13	-1	-1	35	-1	-1	18	-1	-1	-1	-1	-1	26	54	-1	-1	-1	63	-1	-1	-1	-1
-1	-1	-1	27	-1	47	-1	42	28	55	34	-1	-1	-1	-1	57	6	30	-1	16	40	-1	-1	-1	26	21	52	32	11	-1	-1	25	18	4	-1	-1	3	-1	14	-1	45	37	29	-1	20	17	46	-1	5	63	-1	13	41	35	-1	-1	-1	-1	62	-1	-1	22	61	54
-1	-1	13	31	-1	-1	-1	35	-1	12	63	-1	-1	15	32	-1	-1	29	-1	-1	17	-1	36	-1	-1	48	-1	24	51	20	-1	-1	-1	-1	-1	-1	-1	7	-1	47	-1	19	-1	33	-1	18	59	-1	-1	40	52	-1	-1	44	-1	43	55	4	3	-1	-1	26	5	-1
40	-1	-1	-1	-1	-1	46	36	7	-1	51	-1	58	-1	53	48	-1	-1	35	-1	31	-1	52	-1	-1	47	8	25	-1	9	37	5	-1	-1	39	43	-1	-1	26	24	-1	-1	17	61	49	-1	-1	-1	-1	-1	-1	-1	64	-1	60	2	41	-1	28	21	-1	-1	-1	-1
24	-1	-1	-1	-1	7	28	-1	52	-1	-1	-1	-1	-1	-1	-1	61	-1	37	-1	-1	21	-1	-1	-1	-1	27	63	-1	34	35	-1	-1	57	23	45	-1	56	-1	-1	-1	-1	-1	-1	55	-1	-1	-1	58	1	-1	-1	42	8	-1	48	47	17	46	-1	14	36	-1	-1
-1	-1	59	-1	17	-1	10	34	16	50	-1	-1	31	60	-1	38	46	39	53	-1	43	26	-1	-1	49	20	7	-1	57	62	55	12	32	-1	-1	58	1	18	36	35	8	-1	48	-1	-1	4	-1	3	6	13	19	-1	-1	27	52	28	44	-1	-1	-1	-1	64	24	-1
16	-1	1	-1	-1	-1	-1	-1	-1	-1	5	46	30	-1	-1	49	-1	-1	55	-1	11	-1	27	6	-1	58	-1	-1	-1	45	19	4	-1	8	47	28	52	-1	3	21	-1	29	60	-1	-1	-1	9	41	61	32	43	53	-1	-1	54	7	26	2	15	-1	33	51	13	-1
20	-1	-1	48	-1	-1	-1	12	14	59	45	-1	-1	62	-1	-1	25	58	18	34	-1	-1	-1	-1	53	52	11	-1	2	-1	13	-1	-1	-1	55	51	-1	-1	-1	-1	43	63	47	1	37	26	-1	46	-1	56	21	33	-1	-1	15	-1	-1	32	6	-1	22	-1	-1	-1
44	-1	47	-1	-1	43	-1	-1	-1	9	2	4	-1	22	20	37	-1	-1	-1	-1	64	56	17	8	-1	-1	-1	-1	-1	3	-1	-1	34	13	-1	-1	61	-1	63	27	-1	-1	-1	-1	-1	-1	32	62	-1	18	-1	-1	51	49	-1	-1	-1	-1	-1	12	58	38	50	-1
-1	45	-1	-1	64	-1	52	-1	35	63	57	-1	-1	-1	1	-1	-1	-1	10	32	3	-1	-1	13	-1	-1	56	61	-1	-1	-1	-1	-1	25	-1	54	-1	-1	50	48	-1	-1	-1	-1	-1	-1	-1	-1	-1	46	-1	-1	-1	-1	-1	5	49	30	7	53	18	20	34	-1
-1	18	-1	26	13	-1	-1	32	-1	44	64	-1	25	-1	-1	6	57	-1	5	-1	47	-1	-1	-1	-1	40	-1	54	-1	-1	-1	51	-1	7	-1	42	59	46	29	9	35	-1	-1	-1	52	-1	10	19	14	-1	-1	-1	-1	55	-1	62	-1	45	-1	8	-1	-1	48	60
-1	57	-1	38	-1	26	-1	-1	20	29	-1	-1	-1	-1	55	47	-1	5	-1	-1	48	-1	-1	-1	19	59	-1	44	-1	56	62	-1	-1	-1	54	-1	-1	52	61	33	13	8	50	6	-1	-1	51	63	-1	39	-1	17	-1	14	40	25	-1	-1	-1	15	21	-1	-1	53
9	44	39	16	-1	-1	54	14	-1	35	-1	-1	63	34	-1	-1	-1	20	51	-1	27	-1	-1	57	4	-1	45	-1	28	-1	-1	42	50	18	15	-1	-1	-1	48	6	55	-1	-1	-1	60	58	-1	-1	46	41	33	61	62	21	47	1	-1	-1	64	7	-1	-1	49	-1
34	25	15	-1	-1	53	-1	-1	-1	-1	23	24	8	51	21	-1	-1	-1	-1	61	-1	-1	-1	63	-1	37	-1	38	-1	57	52	43	10	16	64	49	-1	9	44	-1	46	-1	-1	41	33	-1	-1	-1	2	-1	11	50	30	-1	-1	-1	35	31	4	-1	-1	27	55	-1
-1	62	-1	1	-1	52	37	51	41	7	25	-1	-1	-1	-1	44	4	-1	-1	64	-1	15	23	18	-1	-1	63	-1	50	16	-1	-1	-1	24	-1	30	14	21	-1	42	27	-1	-1	-1	31	9	57	-1	-1	-1	-1	-1	-1	-1	-1	-1	-1	-1	59	-1	-1	-1	-1	13
-1	-1	21	-1	50	-1	-1	-1	-1	1	-1	-1	-1	-1	-1	64	26	-1	47	44	-1	-1	16	-1	-1	-1	20	53	-1	-1	-1	-1	62	-1	-1	-1	19	57	41	51	17	3	61	-1	-1	-1	-1	52	-1	37	24	-1	32	9	-1	-1	-1	25	63	-1	-1	39	-1	-1
-1	46	-1	-1	-1	-1	-1	-1	12	54	-1	6	-1	-1	-1	32	50	-1	-1	-1	-1	-1	-1	37	-1	-1	-1	2	14	27	-1	-1	-1	-1	-1	-1	40	-1	28	34	18	-1	-1	4	23	-1	-1	16	59	-1	42	51	29	58	44	-1	60	-1	-1	-1	-1	-1	-1	-1
31	17	-1	-1	-1	-1	45	-1	-1	-1	-1	38	16	50	-1	-1	11	54	-1	41	29	14	-1	-1	-1	-1	60	47	3	6	26	9	-1	55	-1	23	37	58	25	59	-1	-1	1	49	5	-1	-1	-1	-1	43	7	-1	27	28	-1	13	48	-1	-1	-1	-1	44	-1	-1
-1	-1	-1	-1	42	-1	43	13	19	15	-1	39	-1	37	14	-1	52	-1	-1	-1	-1	-1	45	40	-1	49	51	-1	25	17	58	8	-1	47	2	-1	-1	1	-1	-1	12	32	-1	-1	-1	11	62	-1	-1	64	-1	-1	-1	-1	-1	53	34	-1	54	33	-1	6	18	57
-1	-1	-1	9	-1	-1	53	-1	-1	17	20	-1	32	-1	6	-1	21	-1	24	49	54	2	43	19	-1	22	46	14	40	26	-1	-1	51	-1	-1	-1	-1	23	-1	12	37	-1	15	-1	57	-1	-1	25	33	31	-1	-1	-1	-1	58	-1	28	-1	-1	29	10	11	38	-1
-1	-1	-1	59	-1	-1	36	44	30	-1	55	-1	2	57	15	-1	-1	28	-1	63	-1	-1	47	31	-1	-1	-1	-1	-1	54	-1	-1	24	3	37	-1	8	20	-1	18	-1	23	-1	11	-1	51	-1	-1	-1	-1	29	64	34	38	43	-1	5	-1	-1	-1	-1	-1	-1	62
8	-1	-1	12	-1	48	61	-1	-1	27	49	-1	-1	63	-1	43	62	14	1	7	-1	6	-1	-1	-1	-1	-1	39	-1	38	44	-1	-1	28	58	-1	-1	33	-1	-1	31	-1	-1	-1	40	20	-1	17	-1	30	36	47	-1	-1	18	51	-1	-1	-1	-1	56	-1	23	-1
60	-1	-1	-1	-1	-1	14	22	-1	24	21	48	-1	52	41	-1	59	27	-1	46	26	23	29	44	-1	3	19	-1	31	55	51	57	-1	-1	-1	-1	25	45	-1	-1	32	16	-1	58	-1	30	6	-1	53	-1	-1	12	50	-1	-1	20	54	13	33	4	39	61	43	40
15	-1	-1	41	-1	-1	-1	43	22	-1	-1	3	-1	-1	-1	-1	51	36	20	56	37	61	-1	-1	23	12	-1	-1	-1	-1	9	28	63	29	26	53	-1	-1	30	16	-1	34	42	62	1	-1	38	7	32	2	-1	35	40	59	21	-1	-1	-1	57	27	55	-1	-1	-1
26	33	-1	19	58	17	-1	23	37	-1	38	10	-1	39	-1	-1	-1	42	-1	-1	16	4	9	-1	-1	-1	-1	18	62	15	8	45	54	-1	-1	-1	-1	-1	22	5	61	24	44	-1	35	-1	-1	-1	7	-1	63	-1	-1	-1	13	49	14	-1	30	-1	34	52	6	47
4	-1	57	-1	-1	54	-1	30	42	-1	-1	-1	-1	-1	36	23	55	-1	-1	-1	-1	-1	34	58	-1	50	-1	43	-1	64	25	7	-1	-1	61	41	-1	-1	6	-1	-1	-1	-1	-1	63	22	-1	-1	45	-1	56	19	48	46	-1	-1	-1	-1	-1	35	-1	-1	-1	-1
-1	-1	-1	-1	-1	-1	-1	49	33	47	-1	44	-1	61	16	-1	-1	12	11	18	25	30	48	-1	-1	-1	-1	-1	58	-1	-1	-1	-1	-1	-1	-1	-1	64	-1	14	-1	-1	5	-1	36	50	-1	-1	54	9	62	-1	1	-1	57	-1	-1	22	37	46	3	59	-1	15
64 
49 20 13 42
59 59 38 45
49 33 63 18
53 56 4 35
9 54 36 39
2 27 61 56
17 55 11 53
15 40 10 12
12 26 42 8
44 64 11 14
62 53 49 8
52 55 19 6
59 33 53 13
31 25 58 45
53 29 6 18
49 62 41 24
1 4 26 3
28 35 7 58
61 46 54 20
4 48 6 6
9 10 7 12
49 19 40 37
8 44 13 51
61 3 35 60
7 43 32 5
54 36 29 59
36 17 53 9
56 4 7 13
64 26 41 64
29 14 6 4
62 37 19 34
28 23 59 36
38 64 17 28
29 10 40 24
7 47 31 39
3 29 47 30
49 46 47 52
42 46 56 48
15 4 24 20
11 62 10 47
36 25 3 55
60 55 53 63
23 35 39 38
26 48 24 13
24 10 2 4
56 18 24 9
13 17 27 4
53 2 30 25
27 53 61 64
37 38 11 40
15 59 6 16
31 44 14 43
58 41 63 10
43 60 6 37
59 47 37 51
54 56 36 45
2 21 25 51
61 58 12 34
56 20 51 46
56 36 37 26
43 64 3 59
23 10 27 63
31 37 54 8
18 28 27 26
